(set-logic QF_SLID_LC)

(declare-sort RefSll_t 0)

(declare-fun next() (Field RefSll_t RefSll_t))

(define-fun ls ((in RefSll_t) (out RefSll_t)) Space (tospace
    (or (and  (= in out) (tobool emp) )
        (exists ((u RefSll_t))
            (and (tobool (ssep (pto in (ref next u)) (ls u out ) )) )
)  ) ) )

;; variables
(declare-fun x0() RefSll_t)
(declare-fun x1() RefSll_t)
(declare-fun x2() RefSll_t)
(declare-fun x3() RefSll_t)
(declare-fun x4() RefSll_t)
(declare-fun x5() RefSll_t)
(declare-fun x6() RefSll_t)
(declare-fun x7() RefSll_t)
(declare-fun x8() RefSll_t)
(declare-fun x9() RefSll_t)
(declare-fun x10() RefSll_t)
(declare-fun x11() RefSll_t)
(declare-fun x12() RefSll_t)
(declare-fun x13() RefSll_t)
(declare-fun x14() RefSll_t)
(declare-fun x15() RefSll_t)
(declare-fun x16() RefSll_t)
(declare-fun x17() RefSll_t)
(declare-fun x18() RefSll_t)
(declare-fun x19() RefSll_t)
(declare-fun x20() RefSll_t)
(declare-fun x21() RefSll_t)
(declare-fun x22() RefSll_t)
(declare-fun x23() RefSll_t)

(assert 
		(and 

			(distinct x6 x18)
			(distinct x6 x15)
			(distinct x11 x15)
			(distinct x3 x4)
			(distinct x3 x7)
			(distinct x3 x5)
			(distinct x7 x11)
			(distinct x7 x16)
			(distinct x7 x17)
			(distinct x9 x13)
			(distinct x12 x18)
			(distinct x2 x18)
			(distinct x2 x7)
			(distinct x2 x13)
			(distinct x2 x5)
			(distinct x15 x17)
			(distinct x8 x10)
			(distinct x8 x9)
			(distinct x8 x14)
			(distinct x1 x11)
			(distinct x4 x8)
			(distinct x4 x9)
			(distinct x13 x18)
			(distinct x13 x16)
			(distinct x10 x19)
			(distinct x5 x10)
			(distinct x5 x17)
			(distinct x5 x14)
		(tobool (ssep 
			(ls x19 x16 )
			(ls x13 x9 )
			(ls x18 x12 )
			(ls x18 x8 )
			(ls x14 x17 )
			(ls x7 x16 )
			(ls x11 x10 )
			(ls x6 x4 )
		)

		)

) )

(check-sat)
;   sat